4620150
1400 500 -1 -1 0
900 900 0 0 0
900 900 910 10 0
900 900 1825 15 0
100 80 -1 -1 0
210 470 -1 -1 0
123 678 -1 -1 0
785 2790 5 1010 1 
330 220 -1 -1 0
467 345 -1 -1 0
350 540 -1 -1 0
350 540 -1 -1 0
